Traveling Salesman Problem/TSP_generados/Aleatorio1620391164_14.tsp
NAME: Aleatorio1620391164_14.tsp
COMMENT: Randomly generated scenario
TYPE: TSP
DIMENSION: 14
EDGE_WEIGHT_TYPE: ATT
NODE_COORD_SECTION
1 26.13 28.29
2 27.55 23.15
3 31.95 3.71
4 31.83 3.94
5 42.77 3.12
6 44.87 22.04
7 31.13 47.74
8 22.64 25.76
9 21.24 3.89
10 10.98 22.97
11 32.45 43.93
12 23.49 28.0
13 26.61 38.97
14 44.59 48.65
