Traveling Salesman Problem/TSP_generados/Aleatorio1620391164_14.opt.tour
NAME: Aleatorio1620391164_14.opt.tour
COMMENT: Optimal solution for Aleatorio1620391164_14 (150.91526230122633)
TYPE: TOUR
DIMENSION: 14
TOUR_SECTION
1 2 12 8 10 9 4 3 5 6 14 7 11 13
-1
EOF
